(set-logic ALL)
(declare-fun i1 () Int)
(declare-fun it630 () Int)
(declare-fun it631 () Int)
(declare-fun i2 () Int)
(declare-fun it632 () Int)
(declare-fun i3 () Int)
(declare-fun it633 () Int)
(declare-fun i4 () Int)
(declare-fun it634 () Int)
(declare-fun i5 () Int)
(declare-fun it635 () Int)
(declare-fun i6 () Int)
(declare-fun it642 () Int)
(declare-fun it643 () Int)
(declare-fun it644 () Int)
(declare-fun it645 () Int)
(declare-fun it646 () Int)
(declare-fun it647 () Int)
(declare-fun it648 () Int)
(declare-fun it649 () Int)
(declare-fun it650 () Int)
(declare-fun it651 () Int)
(declare-fun it652 () Int)
(declare-fun it653 () Int)
(declare-fun it174 () Int)
(declare-fun it658 () Int)
(declare-fun it659 () Int)
(declare-fun it660 () Int)
(declare-fun it661 () Int)
(declare-fun it662 () Int)
(declare-fun it663 () Int)
(declare-fun it701 () Int)
(declare-fun it702 () Int)
(declare-fun it703 () Int)
(declare-fun it704 () Int)
(declare-fun it705 () Int)
(declare-fun it706 () Int)
(declare-fun it709 () Int)
(declare-fun it710 () Int)
(declare-fun it711 () Int)
(declare-fun it712 () Int)
(declare-fun it713 () Int)
(declare-fun it714 () Int)
(declare-fun it664 () Int)
(declare-fun it722 () Int)
(declare-fun it723 () Int)
(declare-fun it724 () Int)
(declare-fun it725 () Int)
(declare-fun it726 () Int)
(declare-fun it727 () Int)
(declare-fun it733 () Int)
(declare-fun it734 () Int)
(declare-fun it735 () Int)
(declare-fun it736 () Int)
(declare-fun it737 () Int)
(declare-fun it738 () Int)
(declare-fun it751 () Int)
(declare-fun it752 () Int)
(declare-fun it753 () Int)
(declare-fun it754 () Int)
(declare-fun it755 () Int)
(declare-fun it756 () Int)
(declare-fun it763 () Int)
(declare-fun it764 () Int)
(declare-fun it765 () Int)
(declare-fun it766 () Int)
(declare-fun it767 () Int)
(declare-fun it768 () Int)
(declare-fun it778 () Int)
(declare-fun it779 () Int)
(declare-fun it780 () Int)
(declare-fun it781 () Int)
(declare-fun it782 () Int)
(declare-fun it783 () Int)
(declare-fun it786 () Int)
(declare-fun it787 () Int)
(declare-fun it788 () Int)
(declare-fun it789 () Int)
(declare-fun it790 () Int)
(declare-fun it791 () Int)
(declare-fun it794 () Int)
(declare-fun it795 () Int)
(declare-fun it796 () Int)
(declare-fun it797 () Int)
(declare-fun it798 () Int)
(declare-fun it799 () Int)
(assert (= (+ i1 (- 1)) 0))
(assert (= (+ it630 (- 2)) 0))
(assert (= (+ (* i2 (- 1)) it631 (- 1)) 0))
(assert (= (+ (* i3 (- 1)) it632) 0))
(assert (= (+ (* i4 (- 1)) it633) 0))
(assert (= (+ (* i5 (- 1)) it634) 0))
(assert (= (+ (* i6 (- 1)) it635) 0))
(assert (and (= (+ it630 (- 2)) 0) (>= (+ it632 (- 3)) 0)))
(assert (= (+ it642 (- 5)) 0))
(assert (= (+ it643 (* it631 (- 1)) (- 2)) 0))
(assert (= (+ it644 (* it632 (- 1))) 0))
(assert (= it645 0))
(assert (= (+ it646 (* it634 (- 1))) 0))
(assert (= (+ it647 (* it635 (- 1))) 0))
(assert (and (>= (+ it644 (* it645 (- 1)) (- 2)) 0) (= (+ it642 (- 5)) 0)))
(assert (= (+ it648 (- 7)) 0))
(assert (= (+ (* it643 (- 1)) it649 (- 2)) 0))
(assert (= (+ it650 (* it644 (- 1))) 0))
(assert (= (+ it651 (* it645 (- 1))) 0))
(assert (= it652 0))
(assert (= (+ it653 (* it647 (- 1))) 0))
(assert (let ((a!1 (+ (+ 0 it650)
              (* (exp 2 it174) (+ 0 (- 2)))
              (* (exp 2 (+ it174 (- 1))) (+ 0 it652) (+ 0 (- 2)))
              (+ 0 (* it651 (- 1)))))
      (a!2 (>= (+ (+ it650 (* it651 (- 1)) (* it652 (- 2))) (- 4)) 0))
      (a!3 (>= (+ (+ it650 (* it651 (- 1)) (* it652 (- 2))) (- 3)) 0)))
  (and (>= (+ (* it648 (- 1)) 7) 0)
       (>= (+ a!1 (+ 0 1)) (+ 0 0))
       (>= a!1 (+ 0 0))
       (>= (+ it648 (- 7)) 0)
       a!2
       a!3
       (>= (+ it174 (- 1)) 0))))
(assert (= (+ (* it648 (- 1)) it658) 0))
(assert (= (+ it659 (* it174 (- 6)) (* it649 (- 1))) 0))
(assert (= (+ (* it650 (- 1)) it660) 0))
(assert (= (+ (* it651 (- 1)) it661) 0))
(assert (let ((a!1 (+ (* (exp 2 it174) (+ 0 it652) (+ 0 (- 1)))
              (* (exp 2 (+ it174 1)) (+ 0 (- 1)))
              (+ 0 it662)
              (+ 0 2))))
  (= a!1 (+ 0 0))))
(assert (let ((a!1 (+ (+ 0 it663)
              (* (exp 2 it174) (+ 0 (- 2)))
              (* (exp 2 (+ it174 (- 1))) (+ 0 it652) (+ 0 (- 2)))
              (+ 0 2))))
  (= a!1 (+ 0 0))))
(assert (and (>= (+ (* it660 (- 1)) it661 (* it662 2) 2) 0) (= (+ it658 (- 7)) 0)))
(assert (= (+ it701 (- 5)) 0))
(assert (= (+ (* it659 (- 1)) it702 (- 2)) 0))
(assert (= (+ it703 (* it660 (- 1))) 0))
(assert (= (+ it704 (* it661 (- 1)) (- 1)) 0))
(assert (= (+ it705 (* it662 (- 1))) 0))
(assert (= (+ it706 (* it663 (- 1))) 0))
(assert (and (= (+ it701 (- 5)) 0) (>= (+ it703 (* it704 (- 1)) (- 2)) 0)))
(assert (= (+ it709 (- 7)) 0))
(assert (= (+ it710 (* it702 (- 1)) (- 2)) 0))
(assert (= (+ (* it703 (- 1)) it711) 0))
(assert (= (+ (* it704 (- 1)) it712) 0))
(assert (= it713 0))
(assert (= (+ (* it706 (- 1)) it714) 0))
(assert (let ((a!1 (+ (+ 0 it711)
              (* (exp 2 (+ it664 (- 1))) (+ 0 it713) (+ 0 (- 2)))
              (* (exp 2 it664) (+ 0 (- 2)))
              (+ 0 (* it712 (- 1)))))
      (a!2 (>= (+ (+ (* it713 (- 2)) it711 (* it712 (- 1))) (- 3)) 0))
      (a!3 (>= (+ (+ (* it713 (- 2)) it711 (* it712 (- 1))) (- 4)) 0)))
  (and (>= (+ (* it709 (- 1)) 7) 0)
       (>= (+ a!1 (+ 0 1)) (+ 0 0))
       a!2
       (>= a!1 (+ 0 0))
       (>= (+ it664 (- 1)) 0)
       a!3
       (>= (+ it709 (- 7)) 0))))
(assert (= (+ (* it709 (- 1)) it722) 0))
(assert (= (+ (* it710 (- 1)) it723 (* it664 (- 6))) 0))
(assert (= (+ (* it711 (- 1)) it724) 0))
(assert (= (+ it725 (* it712 (- 1))) 0))
(assert (let ((a!1 (+ (* (+ 0 it713) (exp 2 it664) (+ 0 (- 1)))
              (+ 0 it726)
              (* (exp 2 (+ it664 1)) (+ 0 (- 1)))
              (+ 0 2))))
  (= a!1 (+ 0 0))))
(assert (let ((a!1 (+ (* (exp 2 (+ it664 (- 1))) (+ 0 it713) (+ 0 (- 2)))
              (+ 0 it727)
              (* (exp 2 it664) (+ 0 (- 2)))
              (+ 0 2))))
  (= a!1 (+ 0 0))))
(assert (let ((a!1 (>= (+ (+ (* it725 (- 1)) it724) (- 5)) 0))
      (a!2 (>= (+ (+ (* it725 (- 1)) it724) (- 4)) 0))
      (a!3 (>= (+ (+ (* it725 (- 1)) it724) (- 3)) 0)))
  (and (>= (+ it722 (- 7)) 0)
       a!1
       (>= (+ (* it722 (- 1)) 7) 0)
       (<= (+ (* it726 2) (* it724 (- 2)) (- 1)) 0)
       a!2
       (>= 2 0)
       (>= (+ it725 (* it726 2) (* it724 (- 1)) 2) 0)
       a!3
       (>= 0 0))))
(assert (= (+ (* it722 (- 1)) it733) 0))
(assert (= (+ (* it725 9) (* it723 (- 1)) (* it724 (- 9)) it734 36) 0))
(assert (= (+ it735 (* it724 (- 1))) 0))
(assert (= (+ it736 (* it724 (- 1)) 4) 0))
(assert (= (+ (* it724 (- 1)) it737) 0))
(assert (= (+ it738 (- 1)) 0))
(assert (and (>= (+ (* it735 (- 1)) it736 (* it737 2) 2) 0) (= (+ it733 (- 7)) 0)))
(assert (= (+ it751 (- 5)) 0))
(assert (= (+ it752 (* it734 (- 1)) (- 2)) 0))
(assert (= (+ (* it735 (- 1)) it753) 0))
(assert (= (+ it754 (* it736 (- 1)) (- 1)) 0))
(assert (= (+ it755 (* it737 (- 1))) 0))
(assert (= (+ (* it738 (- 1)) it756) 0))
(assert (and (>= (+ (* it754 (- 1)) it753 (- 2)) 0) (= (+ it751 (- 5)) 0)))
(assert (= (+ it763 (- 7)) 0))
(assert (= (+ it764 (* it752 (- 1)) (- 2)) 0))
(assert (= (+ it765 (* it753 (- 1))) 0))
(assert (= (+ (* it754 (- 1)) it766) 0))
(assert (= it767 0))
(assert (= (+ it768 (* it756 (- 1))) 0))
(assert (and (>= (+ (* it767 (- 2)) it765 (* it766 (- 1)) (- 3)) 0)
     (= (+ it763 (- 7)) 0)))
(assert (= (+ it778 (- 8)) 0))
(assert (= (+ it779 (* it764 (- 1)) (- 1)) 0))
(assert (= (+ it780 (* it765 (- 1))) 0))
(assert (= (+ it781 (* it766 (- 1))) 0))
(assert (= (+ it782 (* it767 (- 1))) 0))
(assert (= (+ it783 (* it768 (- 1))) 0))
(assert (and (= (+ (* it782 (- 2)) it780 (* it781 (- 1)) (- 3)) 0)
     (= (+ it778 (- 8)) 0)))
(assert (= (+ it786 (- 13)) 0))
(assert (= (+ (* it779 (- 1)) it787 (- 2)) 0))
(assert (= (+ it788 (* it780 (- 1))) 0))
(assert (= (+ it789 (* it781 (- 1))) 0))
(assert (= (+ (* it782 (- 1)) it790) 0))
(assert (= (+ it791 (* it782 (- 2)) (- 1)) 0))
(assert (= (+ it786 (- 13)) 0))
(assert (= (+ it794 (- 7)) 0))
(assert (= (+ it795 (* it787 (- 1)) (- 2)) 0))
(assert (= (+ (* it788 (- 1)) it796) 0))
(assert (= (+ (* it789 (- 1)) it797) 0))
(assert (= (+ (* it791 (- 1)) it798) 0))
(assert (= (+ (* it791 (- 1)) it799) 0))
(assert (and (= (+ it794 (- 7)) 0) (>= (+ (* it798 2) (* it796 (- 1)) it797 2) 0)))
(check-sat)
